language ESSENCE' 1.0
letting lastdx=98
letting cage be [
[1,12,2,0,0, 0,0, 0,0, 0,0],
[46,6,1,7,1,7,2,6,2,5,2],
[8,7,11,0,0, 0,0, 0,0, 0,0],
[24,10,5,11,5,0,0, 0,0, 0,0],
[14,9,2,0,0, 0,0, 0,0, 0,0],
[10,14,6,0,0, 0,0, 0,0, 0,0],
[34,13,8,12,8,12,9,13,9,0,0],
[44,10,13,9,13,9,14,10,14,0,0],
[27,11,12,12,12,0,0, 0,0, 0,0],
[9,3,11,0,0, 0,0, 0,0, 0,0],
[43,10,7,9,7,9,8,8,8,7,8],
[38,11,10,11,11,10,11,10,10,0,0],
[10,9,4,0,0, 0,0, 0,0, 0,0],
[35,10,3,10,4,11,4,12,4,13,4],
[43,3,15,3,16,2,16,2,15,0,0],
[13,2,14,2,13,0,0, 0,0, 0,0],
[30,5,16,4,16,4,15,4,14,0,0],
[45,16,9,15,9,15,10,15,11,0,0],
[31,8,13,8,12,7,12,0,0, 0,0],
[1,6,9,0,0, 0,0, 0,0, 0,0],
[14,4,8,3,8,0,0, 0,0, 0,0],
[45,12,16,11,16,10,16,9,16,0,0],
[11,16,16,0,0, 0,0, 0,0, 0,0],
[8,6,6,0,0, 0,0, 0,0, 0,0],
[20,16,2,15,2,15,3,0,0, 0,0],
[11,13,5,0,0, 0,0, 0,0, 0,0],
[30,6,14,6,15,6,16,7,16,0,0],
[2,12,14,0,0, 0,0, 0,0, 0,0],
[7,4,10,0,0, 0,0, 0,0, 0,0],
[14,4,11,0,0, 0,0, 0,0, 0,0],
[14,8,14,8,15,8,16,0,0, 0,0],
[14,13,1,0,0, 0,0, 0,0, 0,0],
[13,13,10,0,0, 0,0, 0,0, 0,0],
[13,4,2,0,0, 0,0, 0,0, 0,0],
[32,9,1,10,1,11,1,12,1,0,0],
[16,8,3,9,3,0,0, 0,0, 0,0],
[14,14,8,0,0, 0,0, 0,0, 0,0],
[16,4,3,0,0, 0,0, 0,0, 0,0],
[52,14,16,15,16,15,15,14,15,14,14],
[59,3,9,4,9,5,9,5,10,6,10],
[20,5,7,4,7,3,7,0,0, 0,0],
[9,9,9,0,0, 0,0, 0,0, 0,0],
[29,16,11,16,10,16,12,0,0, 0,0],
[30,5,5,5,6,4,6,4,5,0,0],
[28,14,2,14,1,0,0, 0,0, 0,0],
[12,11,6,10,6,0,0, 0,0, 0,0],
[8,3,5,0,0, 0,0, 0,0, 0,0],
[2,15,12,0,0, 0,0, 0,0, 0,0],
[1,7,3,0,0, 0,0, 0,0, 0,0],
[49,1,6,1,7,2,7,2,6,3,6],
[20,15,1,16,1,0,0, 0,0, 0,0],
[11,1,13,0,0, 0,0, 0,0, 0,0],
[24,13,15,13,14,13,16,0,0, 0,0],
[7,16,14,16,15,0,0, 0,0, 0,0],
[35,12,6,12,5,12,7,0,0, 0,0],
[34,15,13,14,13,15,14,16,13,0,0],
[26,1,2,1,1,2,1,2,2,3,2],
[6,8,7,0,0, 0,0, 0,0, 0,0],
[6,14,9,14,10,0,0, 0,0, 0,0],
[42,7,4,6,4,6,5,7,5,7,6],
[20,4,1,3,1,5,1,0,0, 0,0],
[15,6,3,5,3,0,0, 0,0, 0,0],
[13,6,11,0,0, 0,0, 0,0, 0,0],
[27,1,16,1,15,1,14,0,0, 0,0],
[1,16,5,0,0, 0,0, 0,0, 0,0],
[42,8,6,9,6,9,5,8,5,8,4],
[16,6,7,7,7,0,0, 0,0, 0,0],
[24,9,10,8,10,8,11,0,0, 0,0],
[12,8,1,8,2,0,0, 0,0, 0,0],
[28,5,8,6,8,0,0, 0,0, 0,0],
[19,13,7,13,6,0,0, 0,0, 0,0],
[38,4,13,4,12,5,12,5,11,5,13],
[33,11,7,11,8,10,8,10,9,11,9],
[21,5,15,5,14,0,0, 0,0, 0,0],
[13,1,5,0,0, 0,0, 0,0, 0,0],
[21,9,15,10,15,11,15,12,15,0,0],
[14,1,3,0,0, 0,0, 0,0, 0,0],
[12,1,4,0,0, 0,0, 0,0, 0,0],
[7,1,8,0,0, 0,0, 0,0, 0,0],
[37,1,9,2,9,2,8,2,10,3,10],
[22,1,10,1,11,2,11,0,0, 0,0],
[5,1,12,0,0, 0,0, 0,0, 0,0],
[15,2,3,0,0, 0,0, 0,0, 0,0],
[25,2,4,2,5,0,0, 0,0, 0,0],
[33,2,12,3,12,3,13,3,14,0,0],
[9,3,3,3,4,0,0, 0,0, 0,0],
[11,4,4,5,4,0,0, 0,0, 0,0],
[18,7,9,7,10,8,9,0,0, 0,0],
[1,9,11,0,0, 0,0, 0,0, 0,0],
[28,9,12,10,12,0,0, 0,0, 0,0],
[41,10,2,11,2,11,3,12,3,0,0],
[10,11,13,11,14,0,0, 0,0, 0,0],
[12,13,2,13,3,0,0, 0,0, 0,0],
[11,14,3,0,0, 0,0, 0,0, 0,0],
[4,14,4,0,0, 0,0, 0,0, 0,0],
[48,14,5,15,5,15,6,15,7,14,7],
[7,15,4,0,0, 0,0, 0,0, 0,0],
[29,15,8,16,8,16,7,16,6,0,0],
[19,16,3,16,4,0,0, 0,0, 0,0]
]
